TIP.Original.Linear/tip2015_weird_nat_add3acc_spec.smt2
(set-logic HORN)
(declare-datatypes ((Nat_184 0)) (((zero_12 ) (succ_12 (p_36 Nat_184)))))
(declare-fun diseqNat_184 (Nat_184 Nat_184) Bool)
(declare-fun p_37 (Nat_184 Nat_184) Bool)
(declare-fun iszero_12 (Nat_184) Bool)
(declare-fun issucc_12 (Nat_184) Bool)
(assert (forall ((x_11866 Nat_184))
	(p_37 x_11866 (succ_12 x_11866))))
(assert (iszero_12 zero_12))
(assert (forall ((x_11868 Nat_184))
	(issucc_12 (succ_12 x_11868))))
(assert (forall ((x_11869 Nat_184))
	(diseqNat_184 zero_12 (succ_12 x_11869))))
(assert (forall ((x_11870 Nat_184))
	(diseqNat_184 (succ_12 x_11870) zero_12)))
(assert (forall ((x_11871 Nat_184) (x_11872 Nat_184))
	(=> (diseqNat_184 x_11871 x_11872)
	    (diseqNat_184 (succ_12 x_11871) (succ_12 x_11872)))))
(declare-fun plus_10 (Nat_184 Nat_184 Nat_184) Bool)
(assert (forall ((x_11846 Nat_184) (z_524 Nat_184) (y_463 Nat_184))
	(=> (plus_10 x_11846 z_524 y_463)
	    (plus_10 (succ_12 x_11846) (succ_12 z_524) y_463))))
(assert (forall ((x_11847 Nat_184))
	(plus_10 x_11847 zero_12 x_11847)))
(declare-fun addacc_1 (Nat_184 Nat_184 Nat_184 Nat_184) Bool)
(assert (forall ((x_11848 Nat_184) (x_11838 Nat_184) (y_464 Nat_184) (z_525 Nat_184))
	(=> (addacc_1 x_11848 x_11838 (succ_12 y_464) z_525)
	    (addacc_1 x_11848 (succ_12 x_11838) y_464 z_525))))
(assert (forall ((x_11850 Nat_184) (x_11839 Nat_184) (z_525 Nat_184))
	(=> (addacc_1 x_11850 zero_12 x_11839 (succ_12 z_525))
	    (addacc_1 x_11850 zero_12 (succ_12 x_11839) z_525))))
(assert (forall ((x_11852 Nat_184))
	(addacc_1 x_11852 zero_12 zero_12 x_11852)))
(assert (forall ((x_11853 Nat_184) (x_11854 Nat_184) (x_11855 Nat_184) (x_11840 Nat_184) (y_465 Nat_184) (z_526 Nat_184))
	(=>	(and true
			(diseqNat_184 x_11853 x_11855)
			(addacc_1 x_11853 x_11840 y_465 z_526)
			(plus_10 x_11854 y_465 z_526)
			(plus_10 x_11855 x_11840 x_11854))
		false)))
(assert (forall ((x_11856 Nat_184) (x_11857 Nat_184) (x_11858 Nat_184) (x_11859 Nat_184) (x_11841 Nat_184) (y_466 Nat_184) (z_527 Nat_184))
	(=>	(and true
			(diseqNat_184 x_11857 x_11859)
			(plus_10 x_11856 y_466 z_527)
			(plus_10 x_11857 x_11841 x_11856)
			(plus_10 x_11858 x_11841 y_466)
			(plus_10 x_11859 x_11858 z_527))
		false)))
(assert (forall ((x_11860 Nat_184) (x_11861 Nat_184) (x_11842 Nat_184) (y_467 Nat_184))
	(=>	(and true
			(diseqNat_184 x_11860 x_11861)
			(plus_10 x_11860 x_11842 y_467)
			(plus_10 x_11861 y_467 x_11842))
		false)))
(assert (forall ((x_11862 Nat_184) (x_11843 Nat_184))
	(=>	(and true
			(diseqNat_184 x_11862 x_11843)
			(plus_10 x_11862 x_11843 zero_12))
		false)))
(assert (forall ((x_11863 Nat_184) (x_11844 Nat_184))
	(=>	(and true
			(diseqNat_184 x_11863 x_11844)
			(plus_10 x_11863 zero_12 x_11844))
		false)))
(check-sat)
